c Random 6-CNF over 30 variables and 150 clauses
c Generated with `cnfgen`
c (C) 2012-2016 Massimo Lauria <lauria.massimo@gmail.com>
c https://massimolauria.github.io/cnfgen
c
c COMMAND LINE: cnfgen --output tmp-6-30-150.dimacs --output-format dimacs randkcnf 6 30 150
c
c sdimacs generated by gen-sdimacs
c
p cnf 30 150
r 0.5 1 2 3 4 5 6 7 8 9 10 11 12 13 14 15 0
e  16 17 18 19 20 21 22 23 24 25 26 27 28 29 30 0
1 -4 5 9 -15 -16 0
1 -6 -9 14 -21 -25 0
-3 4 -7 9 15 -16 0
11 -15 -16 -23 -26 -30 0
-10 -14 25 26 28 30 0
-8 9 -15 20 -26 -27 0
3 5 9 -11 -16 -25 0
-1 3 6 -12 -27 28 0
3 9 -19 23 24 30 0
4 5 -11 -15 -21 -27 0
2 -6 17 -22 27 28 0
1 2 -13 20 21 -30 0
-3 7 12 -15 -27 -30 0
-1 2 4 13 -22 -25 0
-18 -21 -22 -24 25 -26 0
14 -16 18 19 -25 -28 0
-1 -2 3 5 -11 12 0
-1 8 11 13 -23 -25 0
-3 7 -19 -26 27 30 0
-3 8 -10 16 26 -29 0
3 -4 8 -19 20 26 0
9 -11 -20 -21 25 -29 0
6 -8 15 -23 -26 -30 0
-7 8 10 12 -16 30 0
3 -15 -19 22 28 -30 0
5 7 -13 -16 -24 25 0
-6 8 9 15 16 -23 0
-3 -5 -8 -13 -15 -20 0
2 -9 11 13 -18 27 0
2 3 6 19 -20 -23 0
1 -3 -7 -10 22 -30 0
-5 -6 -15 -19 20 24 0
-8 14 -15 -20 -23 26 0
1 -6 -17 -18 -20 -30 0
-1 6 -8 -9 25 -27 0
2 -3 8 10 -15 -17 0
-1 -3 4 13 -25 -26 0
-9 -12 14 -17 18 27 0
-6 -8 11 14 19 30 0
4 10 -17 22 -25 30 0
1 2 3 -15 27 28 0
1 -3 -15 20 -27 -30 0
-1 10 18 20 -22 -26 0
6 11 14 -15 -24 -30 0
1 2 -5 9 -11 12 0
-8 -13 14 21 -26 -28 0
1 -10 19 20 27 28 0
-5 15 -17 20 -23 -30 0
6 11 -13 -16 -18 27 0
7 -11 14 -17 -22 28 0
-9 -11 -16 -23 24 29 0
3 14 15 -16 -25 -28 0
7 -9 -12 -20 24 -30 0
7 8 -21 -23 -24 -30 0
4 -7 15 -17 18 26 0
-15 20 26 27 -28 -29 0
2 -5 -11 16 23 -30 0
-11 -13 17 -19 23 27 0
6 -12 16 -21 -25 -27 0
-1 -4 10 16 24 -29 0
5 9 -14 -17 25 -27 0
-2 5 6 7 -9 25 0
2 -12 18 -22 23 24 0
-8 -12 18 22 -28 29 0
16 17 20 -23 25 -27 0
-11 -13 14 21 -26 28 0
1 -5 -7 10 -15 -25 0
-5 -14 18 25 28 29 0
1 5 -12 -16 19 -23 0
2 10 14 -21 22 -25 0
5 -6 -13 -14 27 28 0
5 -6 -10 -12 -13 23 0
-2 -5 8 -9 -25 -29 0
11 -17 -20 -21 -25 -27 0
-1 2 16 -17 21 26 0
-5 -6 11 19 -28 30 0
2 4 -5 7 10 -28 0
7 12 -17 -24 26 27 0
2 -4 -13 16 21 24 0
2 12 -22 23 27 30 0
6 -15 -21 25 26 -29 0
-13 -18 20 21 23 -25 0
-3 11 17 20 26 27 0
2 6 -7 -8 -11 -30 0
2 9 -10 26 -27 30 0
-5 13 19 -20 28 -30 0
-10 12 21 -23 -28 30 0
-2 -6 7 -15 23 30 0
-9 -11 -12 -18 25 28 0
-2 -4 -13 -14 -17 20 0
1 -2 5 -7 9 28 0
1 -6 -7 10 22 -25 0
-2 9 11 -15 -17 -23 0
6 -9 -12 -16 -19 -29 0
-5 -7 9 13 -18 -27 0
-10 11 15 -19 -29 -30 0
2 -5 -12 22 -26 27 0
3 -6 13 21 -26 -30 0
1 2 -4 6 -17 -27 0
-4 6 -11 18 -19 -21 0
3 4 -6 -20 25 27 0
-2 -6 -12 13 16 -23 0
3 7 -11 -21 -22 28 0
-2 7 8 -13 21 -26 0
3 -4 -10 12 16 -28 0
6 -8 -14 -15 -21 27 0
9 21 -24 -25 28 -30 0
-5 -8 -14 26 -27 -28 0
-6 -9 16 18 21 -30 0
-5 -6 -12 -15 25 -28 0
3 5 12 -19 27 -30 0
-1 -4 -10 -17 -18 27 0
-2 -5 7 12 13 -27 0
-2 3 4 11 -13 23 0
-2 7 -8 18 -19 -30 0
1 -15 -24 26 -27 30 0
-2 -3 16 -20 -21 -26 0
15 18 -23 24 -25 29 0
2 6 -10 14 -21 -30 0
-3 7 -15 17 21 -30 0
3 -18 -22 -23 -29 30 0
-3 9 16 -19 22 24 0
-5 -7 18 21 22 -29 0
2 12 13 20 -26 -29 0
-4 6 20 -26 28 -30 0
7 -13 20 -24 -27 -30 0
-11 14 16 -21 23 -24 0
8 -11 14 21 23 -27 0
2 -3 9 22 24 -27 0
-2 4 18 -19 23 -29 0
5 11 -19 21 -22 27 0
-4 10 -13 25 27 30 0
-6 -9 -13 15 22 29 0
-1 -2 13 14 19 30 0
5 7 -12 13 21 27 0
4 12 18 21 26 27 0
2 5 9 13 23 -29 0
-7 8 -12 13 14 -24 0
-2 3 -13 19 -25 -30 0
-1 -6 9 14 -22 -29 0
3 5 9 -11 25 30 0
-2 -3 21 -26 -27 30 0
3 5 -12 13 14 -22 0
4 6 7 8 -9 -18 0
-11 -12 14 24 -27 -29 0
5 13 14 -19 -21 -23 0
7 10 -13 -20 22 -25 0
-5 -10 14 16 -17 29 0
-7 9 10 -24 25 -30 0
1 -3 6 14 18 -19 0
